n = 48;
rows = 1056;
supports = [|
    1,2,
  | 1,3,
  | 1,4,
  | 1,5,
  | 1,6,
  | 1,7,
  | 1,8,
  | 1,9,
  | 1,10,
  | 1,11,
  | 1,12,
  | 1,38,
  | 1,39,
  | 1,40,
  | 1,41,
  | 1,42,
  | 1,43,
  | 1,44,
  | 1,45,
  | 1,46,
  | 1,47,
  | 1,48,
  | 2,1,
  | 2,3,
  | 2,4,
  | 2,5,
  | 2,6,
  | 2,7,
  | 2,8,
  | 2,9,
  | 2,10,
  | 2,11,
  | 2,12,
  | 2,13,
  | 2,39,
  | 2,40,
  | 2,41,
  | 2,42,
  | 2,43,
  | 2,44,
  | 2,45,
  | 2,46,
  | 2,47,
  | 2,48,
  | 3,1,
  | 3,2,
  | 3,4,
  | 3,5,
  | 3,6,
  | 3,7,
  | 3,8,
  | 3,9,
  | 3,10,
  | 3,11,
  | 3,12,
  | 3,13,
  | 3,14,
  | 3,40,
  | 3,41,
  | 3,42,
  | 3,43,
  | 3,44,
  | 3,45,
  | 3,46,
  | 3,47,
  | 3,48,
  | 4,1,
  | 4,2,
  | 4,3,
  | 4,5,
  | 4,6,
  | 4,7,
  | 4,8,
  | 4,9,
  | 4,10,
  | 4,11,
  | 4,12,
  | 4,13,
  | 4,14,
  | 4,15,
  | 4,41,
  | 4,42,
  | 4,43,
  | 4,44,
  | 4,45,
  | 4,46,
  | 4,47,
  | 4,48,
  | 5,1,
  | 5,2,
  | 5,3,
  | 5,4,
  | 5,6,
  | 5,7,
  | 5,8,
  | 5,9,
  | 5,10,
  | 5,11,
  | 5,12,
  | 5,13,
  | 5,14,
  | 5,15,
  | 5,16,
  | 5,42,
  | 5,43,
  | 5,44,
  | 5,45,
  | 5,46,
  | 5,47,
  | 5,48,
  | 6,1,
  | 6,2,
  | 6,3,
  | 6,4,
  | 6,5,
  | 6,7,
  | 6,8,
  | 6,9,
  | 6,10,
  | 6,11,
  | 6,12,
  | 6,13,
  | 6,14,
  | 6,15,
  | 6,16,
  | 6,17,
  | 6,43,
  | 6,44,
  | 6,45,
  | 6,46,
  | 6,47,
  | 6,48,
  | 7,1,
  | 7,2,
  | 7,3,
  | 7,4,
  | 7,5,
  | 7,6,
  | 7,8,
  | 7,9,
  | 7,10,
  | 7,11,
  | 7,12,
  | 7,13,
  | 7,14,
  | 7,15,
  | 7,16,
  | 7,17,
  | 7,18,
  | 7,44,
  | 7,45,
  | 7,46,
  | 7,47,
  | 7,48,
  | 8,1,
  | 8,2,
  | 8,3,
  | 8,4,
  | 8,5,
  | 8,6,
  | 8,7,
  | 8,9,
  | 8,10,
  | 8,11,
  | 8,12,
  | 8,13,
  | 8,14,
  | 8,15,
  | 8,16,
  | 8,17,
  | 8,18,
  | 8,19,
  | 8,45,
  | 8,46,
  | 8,47,
  | 8,48,
  | 9,1,
  | 9,2,
  | 9,3,
  | 9,4,
  | 9,5,
  | 9,6,
  | 9,7,
  | 9,8,
  | 9,10,
  | 9,11,
  | 9,12,
  | 9,13,
  | 9,14,
  | 9,15,
  | 9,16,
  | 9,17,
  | 9,18,
  | 9,19,
  | 9,20,
  | 9,46,
  | 9,47,
  | 9,48,
  | 10,1,
  | 10,2,
  | 10,3,
  | 10,4,
  | 10,5,
  | 10,6,
  | 10,7,
  | 10,8,
  | 10,9,
  | 10,11,
  | 10,12,
  | 10,13,
  | 10,14,
  | 10,15,
  | 10,16,
  | 10,17,
  | 10,18,
  | 10,19,
  | 10,20,
  | 10,21,
  | 10,47,
  | 10,48,
  | 11,1,
  | 11,2,
  | 11,3,
  | 11,4,
  | 11,5,
  | 11,6,
  | 11,7,
  | 11,8,
  | 11,9,
  | 11,10,
  | 11,12,
  | 11,13,
  | 11,14,
  | 11,15,
  | 11,16,
  | 11,17,
  | 11,18,
  | 11,19,
  | 11,20,
  | 11,21,
  | 11,22,
  | 11,48,
  | 12,1,
  | 12,2,
  | 12,3,
  | 12,4,
  | 12,5,
  | 12,6,
  | 12,7,
  | 12,8,
  | 12,9,
  | 12,10,
  | 12,11,
  | 12,13,
  | 12,14,
  | 12,15,
  | 12,16,
  | 12,17,
  | 12,18,
  | 12,19,
  | 12,20,
  | 12,21,
  | 12,22,
  | 12,23,
  | 13,2,
  | 13,3,
  | 13,4,
  | 13,5,
  | 13,6,
  | 13,7,
  | 13,8,
  | 13,9,
  | 13,10,
  | 13,11,
  | 13,12,
  | 13,14,
  | 13,15,
  | 13,16,
  | 13,17,
  | 13,18,
  | 13,19,
  | 13,20,
  | 13,21,
  | 13,22,
  | 13,23,
  | 13,24,
  | 14,3,
  | 14,4,
  | 14,5,
  | 14,6,
  | 14,7,
  | 14,8,
  | 14,9,
  | 14,10,
  | 14,11,
  | 14,12,
  | 14,13,
  | 14,15,
  | 14,16,
  | 14,17,
  | 14,18,
  | 14,19,
  | 14,20,
  | 14,21,
  | 14,22,
  | 14,23,
  | 14,24,
  | 14,25,
  | 15,4,
  | 15,5,
  | 15,6,
  | 15,7,
  | 15,8,
  | 15,9,
  | 15,10,
  | 15,11,
  | 15,12,
  | 15,13,
  | 15,14,
  | 15,16,
  | 15,17,
  | 15,18,
  | 15,19,
  | 15,20,
  | 15,21,
  | 15,22,
  | 15,23,
  | 15,24,
  | 15,25,
  | 15,26,
  | 16,5,
  | 16,6,
  | 16,7,
  | 16,8,
  | 16,9,
  | 16,10,
  | 16,11,
  | 16,12,
  | 16,13,
  | 16,14,
  | 16,15,
  | 16,17,
  | 16,18,
  | 16,19,
  | 16,20,
  | 16,21,
  | 16,22,
  | 16,23,
  | 16,24,
  | 16,25,
  | 16,26,
  | 16,27,
  | 17,6,
  | 17,7,
  | 17,8,
  | 17,9,
  | 17,10,
  | 17,11,
  | 17,12,
  | 17,13,
  | 17,14,
  | 17,15,
  | 17,16,
  | 17,18,
  | 17,19,
  | 17,20,
  | 17,21,
  | 17,22,
  | 17,23,
  | 17,24,
  | 17,25,
  | 17,26,
  | 17,27,
  | 17,28,
  | 18,7,
  | 18,8,
  | 18,9,
  | 18,10,
  | 18,11,
  | 18,12,
  | 18,13,
  | 18,14,
  | 18,15,
  | 18,16,
  | 18,17,
  | 18,19,
  | 18,20,
  | 18,21,
  | 18,22,
  | 18,23,
  | 18,24,
  | 18,25,
  | 18,26,
  | 18,27,
  | 18,28,
  | 18,29,
  | 19,8,
  | 19,9,
  | 19,10,
  | 19,11,
  | 19,12,
  | 19,13,
  | 19,14,
  | 19,15,
  | 19,16,
  | 19,17,
  | 19,18,
  | 19,20,
  | 19,21,
  | 19,22,
  | 19,23,
  | 19,24,
  | 19,25,
  | 19,26,
  | 19,27,
  | 19,28,
  | 19,29,
  | 19,30,
  | 20,9,
  | 20,10,
  | 20,11,
  | 20,12,
  | 20,13,
  | 20,14,
  | 20,15,
  | 20,16,
  | 20,17,
  | 20,18,
  | 20,19,
  | 20,21,
  | 20,22,
  | 20,23,
  | 20,24,
  | 20,25,
  | 20,26,
  | 20,27,
  | 20,28,
  | 20,29,
  | 20,30,
  | 20,31,
  | 21,10,
  | 21,11,
  | 21,12,
  | 21,13,
  | 21,14,
  | 21,15,
  | 21,16,
  | 21,17,
  | 21,18,
  | 21,19,
  | 21,20,
  | 21,22,
  | 21,23,
  | 21,24,
  | 21,25,
  | 21,26,
  | 21,27,
  | 21,28,
  | 21,29,
  | 21,30,
  | 21,31,
  | 21,32,
  | 22,11,
  | 22,12,
  | 22,13,
  | 22,14,
  | 22,15,
  | 22,16,
  | 22,17,
  | 22,18,
  | 22,19,
  | 22,20,
  | 22,21,
  | 22,23,
  | 22,24,
  | 22,25,
  | 22,26,
  | 22,27,
  | 22,28,
  | 22,29,
  | 22,30,
  | 22,31,
  | 22,32,
  | 22,33,
  | 23,12,
  | 23,13,
  | 23,14,
  | 23,15,
  | 23,16,
  | 23,17,
  | 23,18,
  | 23,19,
  | 23,20,
  | 23,21,
  | 23,22,
  | 23,24,
  | 23,25,
  | 23,26,
  | 23,27,
  | 23,28,
  | 23,29,
  | 23,30,
  | 23,31,
  | 23,32,
  | 23,33,
  | 23,34,
  | 24,13,
  | 24,14,
  | 24,15,
  | 24,16,
  | 24,17,
  | 24,18,
  | 24,19,
  | 24,20,
  | 24,21,
  | 24,22,
  | 24,23,
  | 24,25,
  | 24,26,
  | 24,27,
  | 24,28,
  | 24,29,
  | 24,30,
  | 24,31,
  | 24,32,
  | 24,33,
  | 24,34,
  | 24,35,
  | 25,14,
  | 25,15,
  | 25,16,
  | 25,17,
  | 25,18,
  | 25,19,
  | 25,20,
  | 25,21,
  | 25,22,
  | 25,23,
  | 25,24,
  | 25,26,
  | 25,27,
  | 25,28,
  | 25,29,
  | 25,30,
  | 25,31,
  | 25,32,
  | 25,33,
  | 25,34,
  | 25,35,
  | 25,36,
  | 26,15,
  | 26,16,
  | 26,17,
  | 26,18,
  | 26,19,
  | 26,20,
  | 26,21,
  | 26,22,
  | 26,23,
  | 26,24,
  | 26,25,
  | 26,27,
  | 26,28,
  | 26,29,
  | 26,30,
  | 26,31,
  | 26,32,
  | 26,33,
  | 26,34,
  | 26,35,
  | 26,36,
  | 26,37,
  | 27,16,
  | 27,17,
  | 27,18,
  | 27,19,
  | 27,20,
  | 27,21,
  | 27,22,
  | 27,23,
  | 27,24,
  | 27,25,
  | 27,26,
  | 27,28,
  | 27,29,
  | 27,30,
  | 27,31,
  | 27,32,
  | 27,33,
  | 27,34,
  | 27,35,
  | 27,36,
  | 27,37,
  | 27,38,
  | 28,17,
  | 28,18,
  | 28,19,
  | 28,20,
  | 28,21,
  | 28,22,
  | 28,23,
  | 28,24,
  | 28,25,
  | 28,26,
  | 28,27,
  | 28,29,
  | 28,30,
  | 28,31,
  | 28,32,
  | 28,33,
  | 28,34,
  | 28,35,
  | 28,36,
  | 28,37,
  | 28,38,
  | 28,39,
  | 29,18,
  | 29,19,
  | 29,20,
  | 29,21,
  | 29,22,
  | 29,23,
  | 29,24,
  | 29,25,
  | 29,26,
  | 29,27,
  | 29,28,
  | 29,30,
  | 29,31,
  | 29,32,
  | 29,33,
  | 29,34,
  | 29,35,
  | 29,36,
  | 29,37,
  | 29,38,
  | 29,39,
  | 29,40,
  | 30,19,
  | 30,20,
  | 30,21,
  | 30,22,
  | 30,23,
  | 30,24,
  | 30,25,
  | 30,26,
  | 30,27,
  | 30,28,
  | 30,29,
  | 30,31,
  | 30,32,
  | 30,33,
  | 30,34,
  | 30,35,
  | 30,36,
  | 30,37,
  | 30,38,
  | 30,39,
  | 30,40,
  | 30,41,
  | 31,20,
  | 31,21,
  | 31,22,
  | 31,23,
  | 31,24,
  | 31,25,
  | 31,26,
  | 31,27,
  | 31,28,
  | 31,29,
  | 31,30,
  | 31,32,
  | 31,33,
  | 31,34,
  | 31,35,
  | 31,36,
  | 31,37,
  | 31,38,
  | 31,39,
  | 31,40,
  | 31,41,
  | 31,42,
  | 32,21,
  | 32,22,
  | 32,23,
  | 32,24,
  | 32,25,
  | 32,26,
  | 32,27,
  | 32,28,
  | 32,29,
  | 32,30,
  | 32,31,
  | 32,33,
  | 32,34,
  | 32,35,
  | 32,36,
  | 32,37,
  | 32,38,
  | 32,39,
  | 32,40,
  | 32,41,
  | 32,42,
  | 32,43,
  | 33,22,
  | 33,23,
  | 33,24,
  | 33,25,
  | 33,26,
  | 33,27,
  | 33,28,
  | 33,29,
  | 33,30,
  | 33,31,
  | 33,32,
  | 33,34,
  | 33,35,
  | 33,36,
  | 33,37,
  | 33,38,
  | 33,39,
  | 33,40,
  | 33,41,
  | 33,42,
  | 33,43,
  | 33,44,
  | 34,23,
  | 34,24,
  | 34,25,
  | 34,26,
  | 34,27,
  | 34,28,
  | 34,29,
  | 34,30,
  | 34,31,
  | 34,32,
  | 34,33,
  | 34,35,
  | 34,36,
  | 34,37,
  | 34,38,
  | 34,39,
  | 34,40,
  | 34,41,
  | 34,42,
  | 34,43,
  | 34,44,
  | 34,45,
  | 35,24,
  | 35,25,
  | 35,26,
  | 35,27,
  | 35,28,
  | 35,29,
  | 35,30,
  | 35,31,
  | 35,32,
  | 35,33,
  | 35,34,
  | 35,36,
  | 35,37,
  | 35,38,
  | 35,39,
  | 35,40,
  | 35,41,
  | 35,42,
  | 35,43,
  | 35,44,
  | 35,45,
  | 35,46,
  | 36,25,
  | 36,26,
  | 36,27,
  | 36,28,
  | 36,29,
  | 36,30,
  | 36,31,
  | 36,32,
  | 36,33,
  | 36,34,
  | 36,35,
  | 36,37,
  | 36,38,
  | 36,39,
  | 36,40,
  | 36,41,
  | 36,42,
  | 36,43,
  | 36,44,
  | 36,45,
  | 36,46,
  | 36,47,
  | 37,26,
  | 37,27,
  | 37,28,
  | 37,29,
  | 37,30,
  | 37,31,
  | 37,32,
  | 37,33,
  | 37,34,
  | 37,35,
  | 37,36,
  | 37,38,
  | 37,39,
  | 37,40,
  | 37,41,
  | 37,42,
  | 37,43,
  | 37,44,
  | 37,45,
  | 37,46,
  | 37,47,
  | 37,48,
  | 38,1,
  | 38,27,
  | 38,28,
  | 38,29,
  | 38,30,
  | 38,31,
  | 38,32,
  | 38,33,
  | 38,34,
  | 38,35,
  | 38,36,
  | 38,37,
  | 38,39,
  | 38,40,
  | 38,41,
  | 38,42,
  | 38,43,
  | 38,44,
  | 38,45,
  | 38,46,
  | 38,47,
  | 38,48,
  | 39,1,
  | 39,2,
  | 39,28,
  | 39,29,
  | 39,30,
  | 39,31,
  | 39,32,
  | 39,33,
  | 39,34,
  | 39,35,
  | 39,36,
  | 39,37,
  | 39,38,
  | 39,40,
  | 39,41,
  | 39,42,
  | 39,43,
  | 39,44,
  | 39,45,
  | 39,46,
  | 39,47,
  | 39,48,
  | 40,1,
  | 40,2,
  | 40,3,
  | 40,29,
  | 40,30,
  | 40,31,
  | 40,32,
  | 40,33,
  | 40,34,
  | 40,35,
  | 40,36,
  | 40,37,
  | 40,38,
  | 40,39,
  | 40,41,
  | 40,42,
  | 40,43,
  | 40,44,
  | 40,45,
  | 40,46,
  | 40,47,
  | 40,48,
  | 41,1,
  | 41,2,
  | 41,3,
  | 41,4,
  | 41,30,
  | 41,31,
  | 41,32,
  | 41,33,
  | 41,34,
  | 41,35,
  | 41,36,
  | 41,37,
  | 41,38,
  | 41,39,
  | 41,40,
  | 41,42,
  | 41,43,
  | 41,44,
  | 41,45,
  | 41,46,
  | 41,47,
  | 41,48,
  | 42,1,
  | 42,2,
  | 42,3,
  | 42,4,
  | 42,5,
  | 42,31,
  | 42,32,
  | 42,33,
  | 42,34,
  | 42,35,
  | 42,36,
  | 42,37,
  | 42,38,
  | 42,39,
  | 42,40,
  | 42,41,
  | 42,43,
  | 42,44,
  | 42,45,
  | 42,46,
  | 42,47,
  | 42,48,
  | 43,1,
  | 43,2,
  | 43,3,
  | 43,4,
  | 43,5,
  | 43,6,
  | 43,32,
  | 43,33,
  | 43,34,
  | 43,35,
  | 43,36,
  | 43,37,
  | 43,38,
  | 43,39,
  | 43,40,
  | 43,41,
  | 43,42,
  | 43,44,
  | 43,45,
  | 43,46,
  | 43,47,
  | 43,48,
  | 44,1,
  | 44,2,
  | 44,3,
  | 44,4,
  | 44,5,
  | 44,6,
  | 44,7,
  | 44,33,
  | 44,34,
  | 44,35,
  | 44,36,
  | 44,37,
  | 44,38,
  | 44,39,
  | 44,40,
  | 44,41,
  | 44,42,
  | 44,43,
  | 44,45,
  | 44,46,
  | 44,47,
  | 44,48,
  | 45,1,
  | 45,2,
  | 45,3,
  | 45,4,
  | 45,5,
  | 45,6,
  | 45,7,
  | 45,8,
  | 45,34,
  | 45,35,
  | 45,36,
  | 45,37,
  | 45,38,
  | 45,39,
  | 45,40,
  | 45,41,
  | 45,42,
  | 45,43,
  | 45,44,
  | 45,46,
  | 45,47,
  | 45,48,
  | 46,1,
  | 46,2,
  | 46,3,
  | 46,4,
  | 46,5,
  | 46,6,
  | 46,7,
  | 46,8,
  | 46,9,
  | 46,35,
  | 46,36,
  | 46,37,
  | 46,38,
  | 46,39,
  | 46,40,
  | 46,41,
  | 46,42,
  | 46,43,
  | 46,44,
  | 46,45,
  | 46,47,
  | 46,48,
  | 47,1,
  | 47,2,
  | 47,3,
  | 47,4,
  | 47,5,
  | 47,6,
  | 47,7,
  | 47,8,
  | 47,9,
  | 47,10,
  | 47,36,
  | 47,37,
  | 47,38,
  | 47,39,
  | 47,40,
  | 47,41,
  | 47,42,
  | 47,43,
  | 47,44,
  | 47,45,
  | 47,46,
  | 47,48,
  | 48,1,
  | 48,2,
  | 48,3,
  | 48,4,
  | 48,5,
  | 48,6,
  | 48,7,
  | 48,8,
  | 48,9,
  | 48,10,
  | 48,11,
  | 48,37,
  | 48,38,
  | 48,39,
  | 48,40,
  | 48,41,
  | 48,42,
  | 48,43,
  | 48,44,
  | 48,45,
  | 48,46,
  | 48,47 |];

t = 176;

indexes = [|
    0,8,
  | 0,11,
  | 0,14,
  | 0,15,
  | 0,23,
  | 0,29,
  | 0,31,
  | 1,2,
  | 1,3,
  | 1,8,
  | 1,22,
  | 1,44,
  | 1,45,
  | 2,3,
  | 2,8,
  | 2,26,
  | 3,8,
  | 3,27,
  | 3,33,
  | 3,36,
  | 3,42,
  | 4,5,
  | 4,7,
  | 4,18,
  | 4,19,
  | 4,20,
  | 4,22,
  | 4,24,
  | 5,9,
  | 5,13,
  | 5,18,
  | 5,21,
  | 5,22,
  | 5,25,
  | 6,7,
  | 6,14,
  | 6,19,
  | 6,20,
  | 6,33,
  | 6,38,
  | 6,43,
  | 6,46,
  | 7,14,
  | 7,19,
  | 7,20,
  | 7,24,
  | 7,33,
  | 7,38,
  | 7,46,
  | 8,10,
  | 8,11,
  | 8,14,
  | 9,11,
  | 9,12,
  | 9,13,
  | 9,21,
  | 9,23,
  | 9,25,
  | 9,28,
  | 9,30,
  | 9,41,
  | 10,26,
  | 10,27,
  | 10,28,
  | 10,31,
  | 10,45,
  | 10,46,
  | 11,14,
  | 11,28,
  | 11,30,
  | 11,41,
  | 12,13,
  | 12,17,
  | 12,21,
  | 12,25,
  | 12,28,
  | 12,30,
  | 12,40,
  | 12,41,
  | 13,17,
  | 13,19,
  | 13,21,
  | 13,25,
  | 13,28,
  | 13,30,
  | 13,42,
  | 13,47,
  | 14,33,
  | 14,46,
  | 15,16,
  | 15,32,
  | 15,37,
  | 16,18,
  | 16,21,
  | 16,23,
  | 16,32,
  | 16,37,
  | 16,47,
  | 17,25,
  | 17,34,
  | 17,36,
  | 17,39,
  | 17,41,
  | 18,22,
  | 18,23,
  | 18,35,
  | 18,47,
  | 19,20,
  | 19,33,
  | 19,38,
  | 19,39,
  | 19,42,
  | 19,46,
  | 19,47,
  | 20,24,
  | 20,38,
  | 20,39,
  | 20,46,
  | 21,30,
  | 21,40,
  | 22,42,
  | 22,44,
  | 22,45,
  | 23,29,
  | 23,31,
  | 23,47,
  | 24,38,
  | 24,43,
  | 24,45,
  | 24,46,
  | 25,28,
  | 25,30,
  | 25,41,
  | 26,27,
  | 26,32,
  | 26,40,
  | 26,43,
  | 26,45,
  | 27,36,
  | 27,38,
  | 27,42,
  | 27,45,
  | 28,30,
  | 28,31,
  | 28,40,
  | 28,41,
  | 28,46,
  | 29,31,
  | 29,34,
  | 29,35,
  | 29,37,
  | 29,41,
  | 30,40,
  | 31,32,
  | 31,46,
  | 32,37,
  | 32,40,
  | 32,43,
  | 33,38,
  | 33,39,
  | 34,35,
  | 34,36,
  | 34,37,
  | 34,39,
  | 34,47,
  | 35,37,
  | 36,39,
  | 36,42,
  | 36,44,
  | 38,39,
  | 38,43,
  | 38,46,
  | 40,43,
  | 42,47,
  | 43,46,
  | 44,45 |];

